NAME          
ROWS
 N  OBJ
 L  c1
 L  c2
COLUMNS
    MARKER    'MARKER'                 'INTORG'
    x[1]      c1        202
    x[1]      c2        99
    x[1]      OBJ       -313
    x[2]      c1        213
    x[2]      c2        672
    x[2]      OBJ       -179
    x[3]      c1        844
    x[3]      c2        600
    x[3]      OBJ       -853
    x[4]      c1        744
    x[4]      c2        303
    x[4]      OBJ       -43
    x[5]      c1        518
    x[5]      c2        845
    x[5]      OBJ       -23
    x[6]      c1        726
    x[6]      c2        344
    x[6]      OBJ       -801
    x[7]      c1        854
    x[7]      c2        386
    x[7]      OBJ       -426
    x[8]      c1        124
    x[8]      c2        251
    x[8]      OBJ       -493
    x[9]      c1        924
    x[9]      c2        728
    x[9]      OBJ       -583
    x[10]     c1        236
    x[10]     c2        547
    x[10]     OBJ       -971
    x[11]     c1        69
    x[11]     c2        910
    x[11]     OBJ       -976
    x[12]     c1        724
    x[12]     c2        240
    x[12]     OBJ       -423
    x[13]     c1        517
    x[13]     c2        752
    x[13]     OBJ       -989
    x[14]     c1        739
    x[14]     c2        700
    x[14]     OBJ       -46
    x[15]     c1        255
    x[15]     c2        435
    x[15]     OBJ       -221
    x[16]     c1        711
    x[16]     c2        141
    x[16]     OBJ       -445
    x[17]     c1        352
    x[17]     c2        379
    x[17]     OBJ       -407
    x[18]     c1        52
    x[18]     c2        554
    x[18]     OBJ       -50
    x[19]     c1        839
    x[19]     c2        693
    x[19]     OBJ       -121
    x[20]     c1        441
    x[20]     c2        754
    x[20]     OBJ       -132
    x[21]     c1        892
    x[21]     c2        840
    x[21]     OBJ       -96
    x[22]     c1        142
    x[22]     c2        151
    x[22]     OBJ       -513
    x[23]     c1        645
    x[23]     c2        188
    x[23]     OBJ       -642
    x[24]     c1        471
    x[24]     c2        482
    x[24]     OBJ       -838
    x[25]     c1        130
    x[25]     c2        416
    x[25]     OBJ       -920
    x[26]     c1        41
    x[26]     c2        327
    x[26]     OBJ       -407
    x[27]     c1        845
    x[27]     c2        970
    x[27]     OBJ       -86
    x[28]     c1        754
    x[28]     c2        459
    x[28]     OBJ       -867
    x[29]     c1        181
    x[29]     c2        366
    x[29]     OBJ       -569
    x[30]     c1        951
    x[30]     c2        100
    x[30]     OBJ       -37
    x[31]     c1        594
    x[31]     c2        384
    x[31]     OBJ       -903
    x[32]     c1        386
    x[32]     c2        197
    x[32]     OBJ       -868
    x[33]     c1        336
    x[33]     c2        143
    x[33]     OBJ       -539
    x[34]     c1        274
    x[34]     c2        341
    x[34]     OBJ       -617
    x[35]     c1        858
    x[35]     c2        874
    x[35]     OBJ       -21
RHS
    rhs       c1        8792
    rhs       c2        8286
RANGES
BOUNDS
 BV bounds    x[1]
 BV bounds    x[2]
 BV bounds    x[3]
 BV bounds    x[4]
 BV bounds    x[5]
 BV bounds    x[6]
 BV bounds    x[7]
 BV bounds    x[8]
 BV bounds    x[9]
 BV bounds    x[10]
 BV bounds    x[11]
 BV bounds    x[12]
 BV bounds    x[13]
 BV bounds    x[14]
 BV bounds    x[15]
 BV bounds    x[16]
 BV bounds    x[17]
 BV bounds    x[18]
 BV bounds    x[19]
 BV bounds    x[20]
 BV bounds    x[21]
 BV bounds    x[22]
 BV bounds    x[23]
 BV bounds    x[24]
 BV bounds    x[25]
 BV bounds    x[26]
 BV bounds    x[27]
 BV bounds    x[28]
 BV bounds    x[29]
 BV bounds    x[30]
 BV bounds    x[31]
 BV bounds    x[32]
 BV bounds    x[33]
 BV bounds    x[34]
 BV bounds    x[35]
ENDATA
